c 
c G(k,n,p) graph
c graph gen seed     : 3218
c number of vertices : 30
c max number of edges: 500
c number of classes  : 2
c edge density       : 0.800000
c edge probability   : 1.600000
c data structure     : dense
c
c           Graph Stats
c number of vertices  : 30
c nonisolated vertices: 30
c number of edges     : 221
c edge density        : 0.508046
c max degree          : 17
c avg degree          : 14.73
c min degree          : 13
p col 30 221
e 1 2
e 1 3
e 1 4
e 1 5
e 1 7
e 1 9
e 1 11
e 1 12
e 1 14
e 1 19
e 1 22
e 1 24
e 1 25
e 1 26
e 1 27
e 1 29
e 2 3
e 2 4
e 2 5
e 2 7
e 2 9
e 2 11
e 2 12
e 2 14
e 2 19
e 2 22
e 2 24
e 2 25
e 2 26
e 2 27
e 2 29
e 3 4
e 3 5
e 3 7
e 3 9
e 3 11
e 3 12
e 3 14
e 3 19
e 3 22
e 3 24
e 3 25
e 3 26
e 3 27
e 3 29
e 4 5
e 4 7
e 4 9
e 4 11
e 4 12
e 4 14
e 4 19
e 4 22
e 4 24
e 4 25
e 4 26
e 4 27
e 4 29
e 5 7
e 5 9
e 5 11
e 5 12
e 5 14
e 5 19
e 5 22
e 5 24
e 5 25
e 5 26
e 5 27
e 5 29
e 6 8
e 6 10
e 6 13
e 6 15
e 6 16
e 6 17
e 6 18
e 6 20
e 6 21
e 6 23
e 6 28
e 6 30
e 7 9
e 7 11
e 7 12
e 7 14
e 7 19
e 7 22
e 7 24
e 7 25
e 7 26
e 7 27
e 7 29
e 8 10
e 8 13
e 8 15
e 8 16
e 8 17
e 8 18
e 8 20
e 8 21
e 8 23
e 8 28
e 8 30
e 9 11
e 9 12
e 9 14
e 9 19
e 9 22
e 9 24
e 9 25
e 9 26
e 9 27
e 9 29
e 10 13
e 10 15
e 10 16
e 10 17
e 10 18
e 10 20
e 10 21
e 10 23
e 10 28
e 10 30
e 11 12
e 11 14
e 11 19
e 11 22
e 11 24
e 11 25
e 11 26
e 11 27
e 11 29
e 12 14
e 12 19
e 12 22
e 12 24
e 12 25
e 12 26
e 12 27
e 12 29
e 13 15
e 13 16
e 13 17
e 13 18
e 13 20
e 13 21
e 13 23
e 13 28
e 13 30
e 14 19
e 14 22
e 14 24
e 14 25
e 14 26
e 14 27
e 14 29
e 15 16
e 15 17
e 15 18
e 15 20
e 15 21
e 15 23
e 15 28
e 15 30
e 16 17
e 16 18
e 16 20
e 16 21
e 16 23
e 16 28
e 16 30
e 17 18
e 17 20
e 17 21
e 17 23
e 17 28
e 17 30
e 18 20
e 18 21
e 18 23
e 18 28
e 18 30
e 19 22
e 19 24
e 19 25
e 19 26
e 19 27
e 19 29
e 20 21
e 20 23
e 20 28
e 20 30
e 21 23
e 21 28
e 21 30
e 22 24
e 22 25
e 22 26
e 22 27
e 22 29
e 23 28
e 23 30
e 24 25
e 24 26
e 24 27
e 24 29
e 25 26
e 25 27
e 25 29
e 26 27
e 26 29
e 27 29
e 28 30
